Route #1: 52 16 81 42 14
Route #2: 108 27 55 30 85
Route #3: 
Route #4: 34 6 2 124 78 15 17
Route #5: 97 74 13 56
Route #6: 57 32
Route #7: 43 106 76
Route #8: 66 116 50 28
Route #9: 122 99
Route #10: 20 4 67 72 54 121
Route #11: 94 47 22 40 65 80 58 95
Route #12: 93 86 90
Route #13: 102 60
Route #14: 103 12
Route #15: 123 92 87 114 11 19 9
Route #16: 82 49 23 24
Route #17: 38 96
Route #18: 26 111
Route #19: 31 3 44
Route #20: 
Route #21: 
Route #22: 109 25 68 118 63 46 1 79 36 117 62
Route #23: 83 110 73
Route #24: 51 105 89 88 115 70 59
Route #25: 35 100 61
Route #26: 75 10 91
Route #27: 64 77 7 29 41 107 101
Route #28: 104 71 45 119 84
Route #29: 120 8 113
Route #30: 69 98 53 5
Route #31: 112 18 21
Route #32: 39 37 33 48
Cost: 95182.36